TYPE : Vertex Cover
DIMENSION: 27
EDGE_DATA_SECTION:
0 2
0 4
0 13
0 16
1 2
1 15
1 21
1 24
1 25
2 5
2 6
2 7
2 16
2 18
2 22
3 4
3 11
3 21
3 22
4 8
4 14
4 16
4 22
5 6
5 9
5 16
5 17
5 18
5 21
6 11
6 13
6 15
6 19
6 21
7 10
7 15
7 26
9 13
9 15
9 18
9 26
10 13
10 14
10 16
11 24
11 25
12 18
12 25
13 22
13 25
14 17
14 21
14 22
14 23
15 21
15 22
15 25
16 22
17 21
17 25
17 26
20 21
21 22
21 24
21 26
-1
VERTEX_DEGREE:
4.0 5.0 8.0 4.0 6.0 7.0 7.0 4.0 1.0 5.0 4.0 4.0 2.0 6.0 6.0 7.0 6.0 5.0 4.0 1.0 1.0 11.0 8.0 1.0 3.0 6.0 4.0
VERTEX_COVER:
1 2 4 6 7 9 11 13 14 16 17 18 21 22 25
EOF
